TYPE : Vertex Cover
DIMENSION: 20
EDGE_DATA_SECTION:
0 7
0 8
0 10
1 4
1 5
1 8
1 10
1 11
1 19
2 8
2 10
2 13
3 12
3 13
3 17
3 18
4 6
4 9
4 13
4 14
4 16
5 7
5 11
5 13
6 7
6 8
6 11
7 15
8 16
8 17
8 18
9 11
9 14
9 15
9 18
10 14
11 13
11 14
12 15
13 17
13 18
14 15
14 16
15 19
-1
VERTEX_DEGREE:
3.0 6.0 3.0 4.0 6.0 4.0 4.0 4.0 7.0 5.0 4.0 6.0 2.0 7.0 6.0 5.0 3.0 3.0 4.0 2.0
VERTEX_COVER:
1 3 4 7 8 9 10 11 13 14 15
EOF
